
  32    4
  10   10   10   10

   0   0   0   0   0   1 2 
   4  10  10  10  10   1 3 
   6  10  10  10  10   1 4 
   7  10  10  10  10   1 5 
   3  10  10  10  10   1 6 
   9  10  10  10  10   1 7 
   6  10  10  10  10   2 9 8 
   4  10  10  10  10   1 10 
   8  10  10  10  10   1 10 
   6  10  10  10  10   1 11 
   6  10  10  10  10   1 12 
   2  10  10  10  10   2 15 13 
  10  10  10  10  10   1 14 
   9  10  10  10  10   1 16 
   4  10  10  10  10   1 16 
   1  10  10  10  10   2 18 17 
   3  10  10  10  10   2 20 19 
   1  10  10  10  10   2 20 19 
   8  10  10  10  10   1 21 
   9  10  10  10  10   1 21 
   6  10  10  10  10   1 22 
  10  10  10  10  10   2 24 23 
   5  10  10  10  10   1 25 
  10  10  10  10  10   1 25 
   3  10  10  10  10   1 26 
  10  10  10  10  10   2 28 27 
   7  10  10  10  10   1 29 
  10  10  10  10  10   1 29 
   2  10  10  10  10   1 30 
   2  10  10  10  10   1 31 
   5  10  10  10  10   1 32
   0   0   0   0   0   0 
